101
L7 c3gc complex | L7 (Sedlak et al.), geometry verbatim from github.com/bdnguye2/divergence_mbpt_noncovalent data/l7/rpa/pbe
C     -2.99700000     2.28200000    -1.32100000
C     -5.08600000     2.10900000    -0.09000000
C     -4.42000000     2.18100000     1.09100000
C     -2.98800000     2.28300000     1.03300000
C      1.16900000     2.37500000     1.01800000
C      1.17400000     2.41300000    -1.46300000
C      3.12600000     2.36500000    -0.40600000
C      2.58800000     2.37400000     0.88800000
C      4.69800000     2.28700000     1.15700000
N     -4.40300000     2.16600000    -1.26600000
N     -2.33000000     2.34200000    -0.14000000
N     -2.25700000     2.32100000     2.15300000
N      0.53700000     2.40100000    -0.24200000
N      2.49800000     2.38800000    -1.59700000
N      3.58700000     2.32600000     1.84900000
N      4.48700000     2.32000000    -0.21400000
N      0.39600000     2.47100000    -2.56600000
O     -2.45400000     2.31100000    -2.43600000
O      0.48200000     2.34000000     2.05900000
H     -4.87100000     2.03900000    -2.15600000
H     -6.16000000     1.98700000    -0.15800000
H     -4.95000000     2.11800000     2.03200000
H     -2.70900000     2.17100000     3.04400000
H     -1.21200000     2.33100000     2.11200000
H     -0.50900000     2.39000000    -0.22200000
H      5.69500000     2.22400000     1.56900000
H      5.17900000     2.21400000    -0.94500000
H      0.87000000     2.33000000    -3.44700000
H     -0.63000000     2.38300000    -2.52900000
C      6.16300000    -0.98100000     1.03500000
C      5.79100000    -0.98100000     2.34900000
C      4.41200000    -0.94900000     2.73600000
C      3.41800000    -0.94200000     1.70900000
C      3.80400000    -0.95400000     0.34100000
C      5.18900000    -0.94700000    -0.01700000
C      2.81400000    -0.90900000    -0.67500000
C      5.54600000    -0.89300000    -1.37100000
C      4.58300000    -0.83400000    -2.38900000
C      3.19600000    -0.85300000    -2.04000000
C      4.93500000    -0.75300000    -3.77700000
C      3.98100000    -0.69600000    -4.75100000
C      2.58300000    -0.72800000    -4.43300000
C      2.20300000    -0.81800000    -3.05700000
C      0.82700000    -0.85000000    -2.70900000
C      0.44300000    -0.91700000    -1.33900000
C      1.43200000    -0.91200000    -0.32400000
C      2.04300000    -0.93200000     2.06100000
C      1.04900000    -0.92900000     1.04200000
C     -0.32500000    -0.94700000     1.39100000
C     -1.31500000    -0.97300000     0.37700000
C     -0.93200000    -0.93900000    -0.98800000
C     -0.16600000    -0.82700000    -3.72300000
C     -1.54300000    -0.88100000    -3.37300000
C     -1.92600000    -0.95600000    -2.00900000
C      1.58800000    -0.68400000    -5.41800000
C      0.22400000    -0.73800000    -5.09600000
C     -2.54600000    -0.86500000    -4.39200000
C     -3.89600000    -0.93600000    -4.02600000
C     -4.29500000    -1.01700000    -2.68600000
C     -3.30100000    -1.01000000    -1.65700000
C     -2.69600000    -1.03100000     0.72800000
C     -3.68500000    -1.07500000    -0.28900000
C     -0.80400000    -0.71600000    -6.09600000
C     -2.12500000    -0.78000000    -5.76000000
C     -5.06900000    -1.14300000     0.07000000
C     -6.04200000    -1.16300000    -0.98200000
C     -5.67300000    -1.09500000    -2.29700000
C     -5.42600000    -1.16000000     1.42500000
C     -4.46600000    -1.08600000     2.44400000
C     -3.07900000    -1.02400000     2.09500000
C     -2.08600000    -0.96500000     3.11200000
C     -0.71100000    -0.91900000     2.76200000
C      0.28100000    -0.88500000     3.77600000
C      1.65800000    -0.88700000     3.42500000
C      2.66000000    -0.86900000     4.44400000
C      4.01200000    -0.90800000     4.07700000
C      2.23800000    -0.81600000     5.81300000
C     -0.11100000    -0.84100000     5.15100000
C      0.91600000    -0.79900000     6.15100000
C     -2.46900000    -0.91900000     4.49000000
C     -1.47500000    -0.85000000     5.47600000
C     -4.82000000    -1.04500000     3.83300000
C     -3.86700000    -0.95800000     4.80800000
H      7.21600000    -0.99900000     0.76300000
H      6.54700000    -0.99700000     3.13100000
H      6.60100000    -0.89000000    -1.64100000
H      5.98900000    -0.73700000    -4.04100000
H      4.27000000    -0.63000000    -5.79800000
H      1.88100000    -0.61600000    -6.46400000
H     -4.65600000    -0.93300000    -4.80500000
H     -0.50700000    -0.65000000    -7.14000000
H     -2.88800000    -0.76500000    -6.53500000
H     -7.09400000    -1.23000000    -0.71200000
H     -6.43000000    -1.11200000    -3.07800000
H     -6.48000000    -1.21000000     1.69300000
H      4.77100000    -0.89700000     4.85600000
H      3.00200000    -0.78800000     6.58700000
H      0.61800000    -0.75800000     7.19600000
H     -1.76900000    -0.81500000     6.52300000
H     -5.87300000    -1.08700000     4.09900000
H     -4.15800000    -0.92600000     5.85600000
