168
valinomycin C54H90N6O18 (36-membered cyclic depsipeptide) | PubChem CID 3000706 SMILES -> OpenBabel --gen3d -> MMFF94 (8000 steps). Generated conformer, not a literature geometry.
C     11.01610000     4.22910000    10.45200000
C     11.86430000     4.46490000     9.19840000
C     12.91250000     5.56610000     9.48360000
O     12.98720000     6.59190000     8.81740000
N     13.71960000     5.28810000    10.56590000
C     14.69960000     6.18600000    11.18560000
C     16.04980000     6.31700000    10.45180000
O     16.23510000     6.20140000     9.25230000
O     17.01330000     6.60220000    11.37780000
C     18.39420000     6.58710000    10.98850000
C     18.91120000     5.23610000    10.38660000
O     18.17730000     4.26780000    10.21640000
N     20.28800000     5.18130000    10.26660000
C     21.10310000     4.07120000     9.73030000
C     21.40990000     4.27850000     8.23150000
O     22.47410000     3.93780000     7.72840000
O     20.41610000     4.93710000     7.57700000
C     20.71330000     5.47670000     6.28120000
C     21.45820000     4.59030000     5.25420000
O     22.57220000     4.88330000     4.81130000
N     20.86990000     3.45610000     4.77620000
C     19.45570000     3.03670000     4.82150000
C     19.10950000     2.42150000     6.18830000
O     19.95550000     1.81880000     6.84990000
O     17.84990000     2.49990000     6.66640000
C     16.65760000     2.93830000     5.97690000
C     16.60100000     4.45760000     5.74100000
O     17.43690000     5.22100000     6.22650000
N     15.66330000     5.00570000     4.91740000
C     14.75420000     4.37230000     3.94190000
C     15.51190000     4.15330000     2.61650000
O     16.53200000     4.78950000     2.35250000
O     14.99360000     3.31860000     1.68580000
C     13.99590000     2.29600000     1.90040000
C     14.41860000     1.24220000     2.93470000
O     15.59210000     1.12880000     3.28940000
N     13.48670000     0.45100000     3.53690000
C     12.02560000     0.41100000     3.35550000
C     11.38180000     1.66560000     3.96730000
O     11.84470000     2.31310000     4.89680000
O     10.27610000     2.01210000     3.25730000
C      9.53540000     3.14240000     3.76560000
C      8.66920000     2.66970000     4.94910000
O      8.17020000     1.54110000     4.96700000
N      8.38360000     3.49880000     5.99560000
C      9.23700000     4.56300000     6.55210000
C     10.23290000     3.93560000     7.55440000
O     10.28940000     2.74210000     7.82420000
O     11.00680000     4.89590000     8.12680000
C      8.39430000     5.66930000     7.24120000
C      7.55200000     6.45040000     6.23100000
C      7.49390000     5.14050000     8.36350000
C      8.70080000     3.69280000     2.58710000
C      7.70190000     2.67640000     2.02150000
C      7.98770000     4.99640000     2.92980000
C     11.44610000    -0.89970000     3.93450000
C     11.40400000    -0.92190000     5.46640000
C     10.05870000    -1.20760000     3.36680000
C     13.80850000     1.62520000     0.54230000
C     13.49450000     5.25480000     3.73630000
C     12.80450000     5.56740000     5.06950000
C     13.77140000     6.56800000     2.99300000
C     15.44920000     2.43230000     6.80650000
C     15.44640000     0.90120000     6.89070000
C     15.44160000     3.00240000     8.22640000
C     19.15510000     2.03970000     3.66900000
C     19.40260000     2.67870000     2.29730000
C     19.92780000     0.71850000     3.76890000
C     21.44380000     6.80680000     6.48510000
C     20.65620000     2.63680000    10.09420000
C     21.69030000     1.59020000     9.64820000
C     20.46100000     2.46850000    11.60900000
C     18.86380000     7.86610000    10.23160000
C     17.77910000     8.91650000     9.97720000
C     20.00040000     8.55720000    11.00970000
C     14.17890000     7.54180000    11.73170000
C     12.95950000     7.36010000    12.64020000
C     13.89580000     8.61940000    10.68510000
H     11.61760000     3.87740000    11.29550000
H     10.51500000     5.15590000    10.75510000
H     10.22860000     3.49050000    10.27580000
H     12.40450000     3.55890000     8.90180000
H     13.83430000     4.30880000    10.79730000
H     14.96280000     5.60100000    12.08180000
H     18.89730000     6.59720000    11.96690000
H     20.77380000     6.06480000    10.25950000
H     22.07250000     4.24410000    10.22120000
H     19.75550000     5.72800000     5.81950000
H     21.50560000     2.93010000     4.19080000
H     18.88020000     3.94970000     4.67540000
H     16.64000000     2.45780000     5.00170000
H     15.86850000     5.98910000     4.77050000
H     14.47320000     3.40380000     4.34710000
H     13.06360000     2.77670000     2.19650000
H     13.88370000    -0.14030000     4.25990000
H     11.85410000     0.44470000     2.27610000
H     10.24410000     3.91470000     4.07350000
H      7.87240000     2.96710000     6.69440000
H      9.82880000     5.00210000     5.74690000
H      9.08300000     6.39290000     7.69680000
H      6.78310000     5.82010000     5.77420000
H      8.18160000     6.86440000     5.43740000
H      7.04470000     7.28950000     6.71950000
H      6.71560000     4.47300000     7.97990000
H      6.99250000     5.97110000     8.87260000
H      8.07100000     4.59640000     9.11700000
H      9.40770000     3.90960000     1.77380000
H      6.90760000     2.44710000     2.73900000
H      8.19650000     1.73940000     1.74650000
H      7.22450000     3.07250000     1.11840000
H      7.19430000     4.83720000     3.66520000
H      7.52550000     5.42870000     2.03560000
H      8.69310000     5.73320000     3.32590000
H     12.10300000    -1.72180000     3.61760000
H     10.69300000    -0.19010000     5.86380000
H     12.38790000    -0.71050000     5.89650000
H     11.09330000    -1.90930000     5.82530000
H      9.31560000    -0.47210000     3.68460000
H      9.71550000    -2.19180000     3.70410000
H     10.07920000    -1.22120000     2.27220000
H     14.75510000     1.19860000     0.18950000
H     13.49780000     2.36190000    -0.20660000
H     13.07030000     0.82100000     0.56210000
H     12.77800000     4.69610000     3.12450000
H     13.40280000     6.24380000     5.68910000
H     12.62510000     4.65530000     5.64430000
H     11.83840000     6.05230000     4.89440000
H     14.48400000     7.20030000     3.53160000
H     12.84540000     7.14150000     2.87240000
H     14.16680000     6.38340000     1.98950000
H     14.51230000     2.73900000     6.33230000
H     16.30020000     0.52510000     7.46450000
H     15.48650000     0.45160000     5.89530000
H     14.53330000     0.54480000     7.37980000
H     16.36130000     2.76400000     8.76890000
H     14.60430000     2.59610000     8.80290000
H     15.32650000     4.08770000     8.19910000
H     18.09560000     1.77660000     3.70570000
H     20.46830000     2.84850000     2.11260000
H     18.88840000     3.64010000     2.21340000
H     19.02770000     2.02950000     1.49850000
H     21.01070000     0.86950000     3.72870000
H     19.65720000     0.05540000     2.93960000
H     19.69010000     0.18760000     4.69560000
H     22.42620000     6.65520000     6.94550000
H     20.87460000     7.45810000     7.15710000
H     21.59200000     7.32940000     5.53460000
H     19.71170000     2.40510000     9.58900000
H     22.66660000     1.77720000    10.10900000
H     21.82720000     1.58350000     8.56460000
H     21.37040000     0.58250000     9.93590000
H     21.38820000     2.68430000    12.15140000
H     20.16480000     1.44090000    11.84780000
H     19.68280000     3.12560000    12.00410000
H     19.27430000     7.57270000     9.25730000
H     17.26290000     9.19480000    10.90200000
H     17.04220000     8.56360000     9.25290000
H     18.21430000     9.82930000     9.55480000
H     19.63990000     8.93810000    11.97210000
H     20.40060000     9.40420000    10.44200000
H     20.83350000     7.87920000    11.21290000
H     14.98200000     7.94950000    12.36230000
H     12.08800000     7.00560000    12.08040000
H     12.68740000     8.30990000    13.11330000
H     13.16990000     6.63980000    13.43750000
H     12.90880000     8.50350000    10.22990000
H     14.65070000     8.63420000     9.89490000
H     13.90160000     9.60800000    11.15920000
