176
vancomycin C66H75Cl2N9O24 | PubChem CID 14969 SMILES -> OpenBabel --gen3d -> MMFF94 (5000 steps). Generated conformer, not a literature geometry.
C      3.41470000    -1.57900000    -8.11320000
C      4.93120000    -1.71440000    -8.19520000
C      5.45040000    -3.02640000    -8.82240000
C      5.52930000    -4.22830000    -7.83600000
C      6.16120000    -3.76220000    -6.51220000
C      5.46600000    -2.50870000    -5.98130000
O      5.55400000    -1.44600000    -6.93190000
O      6.12540000    -2.08070000    -4.78410000
C      5.20620000    -1.73990000    -3.72260000
C      5.85400000    -0.63680000    -2.88230000
C      6.97240000    -1.17630000    -1.97860000
C      6.56130000    -2.44670000    -1.21860000
O      6.02010000    -3.43010000    -2.11460000
C      4.87340000    -2.97830000    -2.84350000
O      4.45650000    -4.00990000    -3.73110000
C      3.28570000    -4.63920000    -3.43050000
C      3.25670000    -5.72790000    -2.55990000
C      2.14490000    -6.57370000    -2.65250000
C      1.18020000    -6.49010000    -3.66330000
C      1.21240000    -5.38040000    -4.48650000
C      2.17770000    -4.38910000    -4.26710000
O      1.96390000    -3.10490000    -4.77150000
C      0.70990000    -2.60530000    -4.41970000
C      0.44780000    -2.04230000    -3.16550000
C     -0.87230000    -1.79970000    -2.76440000
C     -1.95110000    -2.10080000    -3.60730000
C     -1.66700000    -2.54840000    -4.90790000
C     -0.34740000    -2.77600000    -5.32020000
C     -3.37560000    -1.85900000    -3.16600000
C     -3.97490000    -2.68610000    -1.99150000
C     -3.06570000    -3.71290000    -1.26740000
O     -2.56090000    -3.41970000    -0.17910000
N     -2.91680000    -4.95890000    -1.84250000
C     -2.43510000    -6.14690000    -1.08940000
C     -1.82650000    -7.23590000    -2.01660000
O     -1.78450000    -8.43220000    -1.71720000
N     -1.13360000    -6.72690000    -3.09110000
C      0.01860000    -7.45820000    -3.63200000
C     -0.29610000    -8.17120000    -4.97030000
O     -0.85030000    -7.59640000    -5.91160000
N     -0.14590000    -9.54730000    -5.06920000
C      1.14510000   -10.26920000    -4.95670000
C      0.98410000   -11.77010000    -5.22960000
C     -0.21800000   -12.43760000    -4.89060000
C     -0.21130000   -13.74780000    -4.39360000
C      1.03530000   -14.42290000    -4.49450000
C      2.18200000   -13.83940000    -5.03720000
C      2.16430000   -12.50570000    -5.39870000
O      1.24470000   -15.69330000    -4.02430000
C     -1.40040000   -14.34540000    -3.68000000
C     -2.15570000   -13.69870000    -2.63420000
C     -2.99530000   -14.51150000    -1.82600000
C     -3.24800000   -15.84400000    -2.12960000
C     -2.66260000   -16.43540000    -3.22430000
C     -1.75450000   -15.69510000    -3.97470000
O     -1.14100000   -16.34110000    -5.02720000
O     -4.11010000   -16.59450000    -1.38840000
C     -2.27860000   -12.16850000    -2.42980000
N     -1.04730000   -11.43010000    -2.16210000
C     -0.22910000   -11.51370000    -1.04830000
O     -0.52760000   -12.13550000    -0.03830000
C      1.04760000   -10.63080000    -1.20890000
C      2.08680000   -10.74370000    -0.04660000
C      3.02510000    -9.52940000    -0.07080000
C      4.14200000    -9.52310000    -0.92480000
C      4.70910000    -8.30900000    -1.34110000
C      4.17190000    -7.10430000    -0.87560000
O      4.28490000    -5.93970000    -1.63520000
C      3.27160000    -7.11370000     0.19740000
C      2.67760000    -8.32520000     0.57490000
Cl     5.91960000    -8.33780000    -2.56920000
O      1.44150000   -10.75850000     1.23170000
N      1.52230000   -11.01430000    -2.56090000
C      1.83890000   -10.11660000    -3.55670000
O      2.52810000    -9.13510000    -3.32990000
C     -3.50280000   -11.62750000    -1.62920000
O     -4.61510000   -12.14260000    -1.61470000
O     -3.31380000   -10.42150000    -1.04190000
C     -1.44040000    -5.91140000     0.06600000
C     -0.27310000    -5.03040000    -0.31690000
O     -0.00720000    -4.71460000    -1.46860000
N      0.51720000    -4.63020000     0.71950000
N     -4.40940000    -1.80100000    -0.87930000
C     -5.45620000    -2.23090000    -0.07900000
O     -6.37930000    -2.90770000    -0.52780000
C     -5.30020000    -1.87300000     1.42570000
C     -5.48490000    -0.36440000     1.65760000
C     -5.28070000     0.09230000     3.12110000
C     -3.88610000    -0.24450000     3.65520000
C     -5.52170000     1.59960000     3.23570000
N     -6.26800000    -2.64390000     2.23630000
C     -5.81520000    -4.01400000     2.45370000
O     -3.46710000    -0.44830000    -2.89000000
Cl     1.69390000    -1.60520000    -2.06460000
C      5.62270000    -2.22820000    -0.01820000
O      5.25450000    -3.48810000     0.55570000
O      7.39810000    -0.14730000    -1.07870000
O      4.88420000     0.03040000    -2.05680000
C      4.16040000    -4.88950000    -7.60700000
N      6.39130000    -5.29120000    -8.41320000
O      6.79290000    -2.76620000    -9.30390000
H      2.94910000    -1.77340000    -9.08420000
H      3.15390000    -0.55920000    -7.80770000
H      2.95850000    -2.23310000    -7.37070000
H      5.26790000    -0.89540000    -8.84440000
H      4.86140000    -3.28770000    -9.70910000
H      7.22580000    -3.53390000    -6.65960000
H      6.13360000    -4.56000000    -5.75940000
H      4.41240000    -2.71410000    -5.78820000
H      4.27900000    -1.34820000    -4.16090000
H      6.28300000     0.13590000    -3.53240000
H      7.82730000    -1.43070000    -2.61720000
H      7.47260000    -2.90030000    -0.80850000
H      4.08510000    -2.74340000    -2.12900000
H      2.00810000    -7.37840000    -1.94360000
H      0.41930000    -5.24210000    -5.21350000
H     -1.05960000    -1.37610000    -1.77930000
H     -2.47250000    -2.73080000    -5.61760000
H     -0.15490000    -3.15930000    -6.31950000
H     -4.03430000    -2.01870000    -4.02920000
H     -4.84770000    -3.23740000    -2.36230000
H     -3.46820000    -5.16340000    -2.66820000
H     -3.34600000    -6.59350000    -0.67020000
H     -0.99920000    -5.71540000    -3.03830000
H      0.23630000    -8.24790000    -2.91490000
H     -0.56910000    -9.78650000    -5.96110000
H      1.81730000    -9.83680000    -5.70880000
H     -1.14230000   -11.87290000    -4.88480000
H      3.10700000   -14.40980000    -5.08890000
H      3.10130000   -12.02180000    -5.67260000
H      0.44440000   -16.20090000    -4.25970000
H     -3.50450000   -14.09040000    -0.96210000
H     -2.88730000   -17.47190000    -3.45340000
H     -1.68080000   -17.11570000    -5.27160000
H     -4.53070000   -16.02340000    -0.72240000
H     -2.57180000   -11.81150000    -3.42770000
H     -0.79270000   -10.73520000    -2.85490000
H      0.68160000    -9.59830000    -1.25080000
H      2.66900000   -11.66830000    -0.12860000
H      4.46720000   -10.44600000    -1.39980000
H      2.89280000    -6.17740000     0.59770000
H      1.85300000    -8.30340000     1.28650000
H      0.81230000   -11.51000000     1.23600000
H      1.26960000   -11.95660000    -2.84370000
H     -2.44690000    -9.99790000    -1.24160000
H     -1.02920000    -6.86660000     0.41640000
H     -1.95880000    -5.46150000     0.92050000
H      0.14690000    -4.58020000     1.65960000
H      1.23810000    -3.95470000     0.48780000
H     -3.61580000    -1.43190000    -0.35930000
H     -4.27880000    -2.15070000     1.71360000
H     -6.49030000    -0.06990000     1.32660000
H     -4.78800000     0.18890000     1.01420000
H     -6.01950000    -0.40700000     3.76010000
H     -3.10310000     0.16430000     3.00780000
H     -3.73710000    -1.32580000     3.73160000
H     -3.74360000     0.16900000     4.65970000
H     -4.80100000     2.16450000     2.63490000
H     -5.42670000     1.92970000     4.27600000
H     -6.52910000     1.86000000     2.89510000
H     -7.15020000    -2.67630000     1.71650000
H     -4.87940000    -4.03240000     3.02210000
H     -5.67110000    -4.55810000     1.51510000
H     -6.56440000    -4.55360000     3.04120000
H     -4.28100000    -0.32780000    -2.36450000
H      4.69220000    -1.72940000    -0.29590000
H      6.10610000    -1.62840000     0.75880000
H      5.30630000    -4.14790000    -0.16640000
H      6.60140000     0.39100000    -0.89480000
H      4.27990000     0.51070000    -2.65440000
H      3.45060000    -4.23800000    -7.09890000
H      4.25410000    -5.78890000    -6.98550000
H      3.70120000    -5.19190000    -8.55580000
H      7.25500000    -4.83760000    -8.73030000
H      5.97110000    -5.63100000    -9.27900000
H      7.26330000    -2.30300000    -8.58370000
