62
linear n-alkane C20H42, all-anti, d_CC=1.526 d_CH=1.09 CCC=112.0 HCH=106.5 HCC=110.7
C      0.000000     0.000000     0.000000
C      1.265111     0.853328     0.000000
C      2.530223     0.000000     0.000000
C      3.795334     0.853328     0.000000
C      5.060445     0.000000     0.000000
C      6.325557     0.853328     0.000000
C      7.590668     0.000000     0.000000
C      8.855779     0.853328     0.000000
C     10.120891     0.000000     0.000000
C     11.386002     0.853328     0.000000
C     12.651113     0.000000     0.000000
C     13.916225     0.853328     0.000000
C     15.181336     0.000000     0.000000
C     16.446447     0.853328     0.000000
C     17.711559     0.000000     0.000000
C     18.976670     0.853328     0.000000
C     20.241781     0.000000     0.000000
C     21.506893     0.853328     0.000000
C     22.772004     0.000000     0.000000
C     24.037115     0.853328     0.000000
H     -0.889590     0.629865     0.000000
H     -0.034332    -0.638108     0.883029
H     -0.034332    -0.638108    -0.883029
H      1.265111     1.505502     0.873367
H      1.265111     1.505502    -0.873367
H      2.530223    -0.652174    -0.873367
H      2.530223    -0.652174     0.873367
H      3.795334     1.505502     0.873367
H      3.795334     1.505502    -0.873367
H      5.060445    -0.652174    -0.873367
H      5.060445    -0.652174     0.873367
H      6.325557     1.505502     0.873367
H      6.325557     1.505502    -0.873367
H      7.590668    -0.652174    -0.873367
H      7.590668    -0.652174     0.873367
H      8.855779     1.505502     0.873367
H      8.855779     1.505502    -0.873367
H     10.120891    -0.652174    -0.873367
H     10.120891    -0.652174     0.873367
H     11.386002     1.505502     0.873367
H     11.386002     1.505502    -0.873367
H     12.651113    -0.652174    -0.873367
H     12.651113    -0.652174     0.873367
H     13.916225     1.505502     0.873367
H     13.916225     1.505502    -0.873367
H     15.181336    -0.652174    -0.873367
H     15.181336    -0.652174     0.873367
H     16.446447     1.505502     0.873367
H     16.446447     1.505502    -0.873367
H     17.711559    -0.652174    -0.873367
H     17.711559    -0.652174     0.873367
H     18.976670     1.505502     0.873367
H     18.976670     1.505502    -0.873367
H     20.241781    -0.652174    -0.873367
H     20.241781    -0.652174     0.873367
H     21.506893     1.505502     0.873367
H     21.506893     1.505502    -0.873367
H     22.772004    -0.652174    -0.873367
H     22.772004    -0.652174     0.873367
H     24.926705     0.223464     0.000000
H     24.071447     1.491436     0.883029
H     24.071447     1.491436    -0.883029
