26
linear n-alkane C8H18, all-anti, d_CC=1.526 d_CH=1.09 CCC=112.0 HCH=106.5 HCC=110.7
C      0.000000     0.000000     0.000000
C      1.265111     0.853328     0.000000
C      2.530223     0.000000     0.000000
C      3.795334     0.853328     0.000000
C      5.060445     0.000000     0.000000
C      6.325557     0.853328     0.000000
C      7.590668     0.000000     0.000000
C      8.855779     0.853328     0.000000
H     -0.889590     0.629865     0.000000
H     -0.034332    -0.638108     0.883029
H     -0.034332    -0.638108    -0.883029
H      1.265111     1.505502     0.873367
H      1.265111     1.505502    -0.873367
H      2.530223    -0.652174    -0.873367
H      2.530223    -0.652174     0.873367
H      3.795334     1.505502     0.873367
H      3.795334     1.505502    -0.873367
H      5.060445    -0.652174    -0.873367
H      5.060445    -0.652174     0.873367
H      6.325557     1.505502     0.873367
H      6.325557     1.505502    -0.873367
H      7.590668    -0.652174    -0.873367
H      7.590668    -0.652174     0.873367
H      9.745369     0.223464     0.000000
H      8.890111     1.491436     0.883029
H      8.890111     1.491436    -0.883029
