242
linear n-alkane C80H162, all-anti, d_CC=1.526 d_CH=1.09 CCC=112.0 HCH=106.5 HCC=110.7
C      0.000000     0.000000     0.000000
C      1.265111     0.853328     0.000000
C      2.530223     0.000000     0.000000
C      3.795334     0.853328     0.000000
C      5.060445     0.000000     0.000000
C      6.325557     0.853328     0.000000
C      7.590668     0.000000     0.000000
C      8.855779     0.853328     0.000000
C     10.120891     0.000000     0.000000
C     11.386002     0.853328     0.000000
C     12.651113     0.000000     0.000000
C     13.916225     0.853328     0.000000
C     15.181336     0.000000     0.000000
C     16.446447     0.853328     0.000000
C     17.711559     0.000000     0.000000
C     18.976670     0.853328     0.000000
C     20.241781     0.000000     0.000000
C     21.506893     0.853328     0.000000
C     22.772004     0.000000     0.000000
C     24.037115     0.853328     0.000000
C     25.302227     0.000000     0.000000
C     26.567338     0.853328     0.000000
C     27.832449     0.000000     0.000000
C     29.097561     0.853328     0.000000
C     30.362672     0.000000     0.000000
C     31.627783     0.853328     0.000000
C     32.892895     0.000000     0.000000
C     34.158006     0.853328     0.000000
C     35.423117     0.000000     0.000000
C     36.688229     0.853328     0.000000
C     37.953340     0.000000     0.000000
C     39.218451     0.853328     0.000000
C     40.483563     0.000000     0.000000
C     41.748674     0.853328     0.000000
C     43.013785     0.000000     0.000000
C     44.278897     0.853328     0.000000
C     45.544008     0.000000     0.000000
C     46.809119     0.853328     0.000000
C     48.074231     0.000000     0.000000
C     49.339342     0.853328     0.000000
C     50.604453     0.000000     0.000000
C     51.869565     0.853328     0.000000
C     53.134676     0.000000     0.000000
C     54.399787     0.853328     0.000000
C     55.664899     0.000000     0.000000
C     56.930010     0.853328     0.000000
C     58.195121     0.000000     0.000000
C     59.460233     0.853328     0.000000
C     60.725344     0.000000     0.000000
C     61.990455     0.853328     0.000000
C     63.255567     0.000000     0.000000
C     64.520678     0.853328     0.000000
C     65.785789     0.000000     0.000000
C     67.050901     0.853328     0.000000
C     68.316012     0.000000     0.000000
C     69.581123     0.853328     0.000000
C     70.846235     0.000000     0.000000
C     72.111346     0.853328     0.000000
C     73.376457     0.000000     0.000000
C     74.641569     0.853328     0.000000
C     75.906680     0.000000     0.000000
C     77.171791     0.853328     0.000000
C     78.436903     0.000000     0.000000
C     79.702014     0.853328     0.000000
C     80.967125     0.000000     0.000000
C     82.232237     0.853328     0.000000
C     83.497348     0.000000     0.000000
C     84.762459     0.853328     0.000000
C     86.027571     0.000000     0.000000
C     87.292682     0.853328     0.000000
C     88.557794     0.000000     0.000000
C     89.822905     0.853328     0.000000
C     91.088016     0.000000     0.000000
C     92.353128     0.853328     0.000000
C     93.618239     0.000000     0.000000
C     94.883350     0.853328     0.000000
C     96.148462     0.000000     0.000000
C     97.413573     0.853328     0.000000
C     98.678684     0.000000     0.000000
C     99.943796     0.853328     0.000000
H     -0.889590     0.629865     0.000000
H     -0.034332    -0.638108     0.883029
H     -0.034332    -0.638108    -0.883029
H      1.265111     1.505502     0.873367
H      1.265111     1.505502    -0.873367
H      2.530223    -0.652174    -0.873367
H      2.530223    -0.652174     0.873367
H      3.795334     1.505502     0.873367
H      3.795334     1.505502    -0.873367
H      5.060445    -0.652174    -0.873367
H      5.060445    -0.652174     0.873367
H      6.325557     1.505502     0.873367
H      6.325557     1.505502    -0.873367
H      7.590668    -0.652174    -0.873367
H      7.590668    -0.652174     0.873367
H      8.855779     1.505502     0.873367
H      8.855779     1.505502    -0.873367
H     10.120891    -0.652174    -0.873367
H     10.120891    -0.652174     0.873367
H     11.386002     1.505502     0.873367
H     11.386002     1.505502    -0.873367
H     12.651113    -0.652174    -0.873367
H     12.651113    -0.652174     0.873367
H     13.916225     1.505502     0.873367
H     13.916225     1.505502    -0.873367
H     15.181336    -0.652174    -0.873367
H     15.181336    -0.652174     0.873367
H     16.446447     1.505502     0.873367
H     16.446447     1.505502    -0.873367
H     17.711559    -0.652174    -0.873367
H     17.711559    -0.652174     0.873367
H     18.976670     1.505502     0.873367
H     18.976670     1.505502    -0.873367
H     20.241781    -0.652174    -0.873367
H     20.241781    -0.652174     0.873367
H     21.506893     1.505502     0.873367
H     21.506893     1.505502    -0.873367
H     22.772004    -0.652174    -0.873367
H     22.772004    -0.652174     0.873367
H     24.037115     1.505502     0.873367
H     24.037115     1.505502    -0.873367
H     25.302227    -0.652174    -0.873367
H     25.302227    -0.652174     0.873367
H     26.567338     1.505502     0.873367
H     26.567338     1.505502    -0.873367
H     27.832449    -0.652174    -0.873367
H     27.832449    -0.652174     0.873367
H     29.097561     1.505502     0.873367
H     29.097561     1.505502    -0.873367
H     30.362672    -0.652174    -0.873367
H     30.362672    -0.652174     0.873367
H     31.627783     1.505502     0.873367
H     31.627783     1.505502    -0.873367
H     32.892895    -0.652174    -0.873367
H     32.892895    -0.652174     0.873367
H     34.158006     1.505502     0.873367
H     34.158006     1.505502    -0.873367
H     35.423117    -0.652174    -0.873367
H     35.423117    -0.652174     0.873367
H     36.688229     1.505502     0.873367
H     36.688229     1.505502    -0.873367
H     37.953340    -0.652174    -0.873367
H     37.953340    -0.652174     0.873367
H     39.218451     1.505502     0.873367
H     39.218451     1.505502    -0.873367
H     40.483563    -0.652174    -0.873367
H     40.483563    -0.652174     0.873367
H     41.748674     1.505502     0.873367
H     41.748674     1.505502    -0.873367
H     43.013785    -0.652174    -0.873367
H     43.013785    -0.652174     0.873367
H     44.278897     1.505502     0.873367
H     44.278897     1.505502    -0.873367
H     45.544008    -0.652174    -0.873367
H     45.544008    -0.652174     0.873367
H     46.809119     1.505502     0.873367
H     46.809119     1.505502    -0.873367
H     48.074231    -0.652174    -0.873367
H     48.074231    -0.652174     0.873367
H     49.339342     1.505502     0.873367
H     49.339342     1.505502    -0.873367
H     50.604453    -0.652174    -0.873367
H     50.604453    -0.652174     0.873367
H     51.869565     1.505502     0.873367
H     51.869565     1.505502    -0.873367
H     53.134676    -0.652174    -0.873367
H     53.134676    -0.652174     0.873367
H     54.399787     1.505502     0.873367
H     54.399787     1.505502    -0.873367
H     55.664899    -0.652174    -0.873367
H     55.664899    -0.652174     0.873367
H     56.930010     1.505502     0.873367
H     56.930010     1.505502    -0.873367
H     58.195121    -0.652174    -0.873367
H     58.195121    -0.652174     0.873367
H     59.460233     1.505502     0.873367
H     59.460233     1.505502    -0.873367
H     60.725344    -0.652174    -0.873367
H     60.725344    -0.652174     0.873367
H     61.990455     1.505502     0.873367
H     61.990455     1.505502    -0.873367
H     63.255567    -0.652174    -0.873367
H     63.255567    -0.652174     0.873367
H     64.520678     1.505502     0.873367
H     64.520678     1.505502    -0.873367
H     65.785789    -0.652174    -0.873367
H     65.785789    -0.652174     0.873367
H     67.050901     1.505502     0.873367
H     67.050901     1.505502    -0.873367
H     68.316012    -0.652174    -0.873367
H     68.316012    -0.652174     0.873367
H     69.581123     1.505502     0.873367
H     69.581123     1.505502    -0.873367
H     70.846235    -0.652174    -0.873367
H     70.846235    -0.652174     0.873367
H     72.111346     1.505502     0.873367
H     72.111346     1.505502    -0.873367
H     73.376457    -0.652174    -0.873367
H     73.376457    -0.652174     0.873367
H     74.641569     1.505502     0.873367
H     74.641569     1.505502    -0.873367
H     75.906680    -0.652174    -0.873367
H     75.906680    -0.652174     0.873367
H     77.171791     1.505502     0.873367
H     77.171791     1.505502    -0.873367
H     78.436903    -0.652174    -0.873367
H     78.436903    -0.652174     0.873367
H     79.702014     1.505502     0.873367
H     79.702014     1.505502    -0.873367
H     80.967125    -0.652174    -0.873367
H     80.967125    -0.652174     0.873367
H     82.232237     1.505502     0.873367
H     82.232237     1.505502    -0.873367
H     83.497348    -0.652174    -0.873367
H     83.497348    -0.652174     0.873367
H     84.762459     1.505502     0.873367
H     84.762459     1.505502    -0.873367
H     86.027571    -0.652174    -0.873367
H     86.027571    -0.652174     0.873367
H     87.292682     1.505502     0.873367
H     87.292682     1.505502    -0.873367
H     88.557794    -0.652174    -0.873367
H     88.557794    -0.652174     0.873367
H     89.822905     1.505502     0.873367
H     89.822905     1.505502    -0.873367
H     91.088016    -0.652174    -0.873367
H     91.088016    -0.652174     0.873367
H     92.353128     1.505502     0.873367
H     92.353128     1.505502    -0.873367
H     93.618239    -0.652174    -0.873367
H     93.618239    -0.652174     0.873367
H     94.883350     1.505502     0.873367
H     94.883350     1.505502    -0.873367
H     96.148462    -0.652174    -0.873367
H     96.148462    -0.652174     0.873367
H     97.413573     1.505502     0.873367
H     97.413573     1.505502    -0.873367
H     98.678684    -0.652174    -0.873367
H     98.678684    -0.652174     0.873367
H    100.833385     0.223464     0.000000
H     99.978127     1.491436     0.883029
H     99.978127     1.491436    -0.883029
