12
h-BN hex flake from 1x1 hex centers with H-terminated boundary
B      1.450000     0.000000     0.000000
N      0.725000     1.255737     0.000000
B     -0.725000     1.255737     0.000000
N     -1.450000     0.000000     0.000000
B     -0.725000    -1.255737     0.000000
N      0.725000    -1.255737     0.000000
H      2.640000     0.000000     0.000000
H      1.230000     2.130422     0.000000
H     -1.320000     2.286307     0.000000
H     -2.460000     0.000000     0.000000
H     -1.320000    -2.286307     0.000000
H      1.230000    -2.130422     0.000000
