34
h-BN hex flake from 2x3 hex centers with H-terminated boundary
B      1.450000     0.000000     0.000000
N      0.725000     1.255737     0.000000
B     -0.725000     1.255737     0.000000
N     -1.450000     0.000000     0.000000
B     -0.725000    -1.255737     0.000000
N      0.725000    -1.255737     0.000000
B      1.450000     2.511474     0.000000
N      0.725000     3.767211     0.000000
B     -0.725000     3.767211     0.000000
N     -1.450000     2.511474     0.000000
B      1.450000     5.022947     0.000000
N      0.725000     6.278684     0.000000
B     -0.725000     6.278684     0.000000
N     -1.450000     5.022947     0.000000
B      3.625000     1.255737     0.000000
N      2.900000     2.511474     0.000000
N      2.900000     0.000000     0.000000
B      3.625000     3.767211     0.000000
N      2.900000     5.022947     0.000000
B      3.625000     6.278684     0.000000
N      2.900000     7.534421     0.000000
B      1.450000     7.534421     0.000000
H     -2.460000     0.000000     0.000000
H     -1.320000    -2.286307     0.000000
H      1.230000    -2.130422     0.000000
H     -2.460000     2.511474     0.000000
H     -1.320000     7.309254     0.000000
H     -2.460000     5.022947     0.000000
H      4.815000     1.255737     0.000000
H      3.405000    -0.874686     0.000000
H      4.815000     3.767211     0.000000
H      4.815000     6.278684     0.000000
H      3.405000     8.409107     0.000000
H      0.855000     8.564991     0.000000
