44
h-BN hex flake from 3x3 hex centers with H-terminated boundary
B      1.450000     0.000000     0.000000
N      0.725000     1.255737     0.000000
B     -0.725000     1.255737     0.000000
N     -1.450000     0.000000     0.000000
B     -0.725000    -1.255737     0.000000
N      0.725000    -1.255737     0.000000
B      1.450000     2.511474     0.000000
N      0.725000     3.767211     0.000000
B     -0.725000     3.767211     0.000000
N     -1.450000     2.511474     0.000000
B      1.450000     5.022947     0.000000
N      0.725000     6.278684     0.000000
B     -0.725000     6.278684     0.000000
N     -1.450000     5.022947     0.000000
B      3.625000     1.255737     0.000000
N      2.900000     2.511474     0.000000
N      2.900000     0.000000     0.000000
B      3.625000     3.767211     0.000000
N      2.900000     5.022947     0.000000
B      3.625000     6.278684     0.000000
N      2.900000     7.534421     0.000000
B      1.450000     7.534421     0.000000
B      5.800000     2.511474     0.000000
N      5.075000     3.767211     0.000000
N      5.075000     1.255737     0.000000
B      5.800000     5.022947     0.000000
N      5.075000     6.278684     0.000000
B      5.800000     7.534421     0.000000
N      5.075000     8.790158     0.000000
B      3.625000     8.790158     0.000000
H     -2.460000     0.000000     0.000000
H     -1.320000    -2.286307     0.000000
H      1.230000    -2.130422     0.000000
H     -2.460000     2.511474     0.000000
H     -1.320000     7.309254     0.000000
H     -2.460000     5.022947     0.000000
H      3.405000    -0.874686     0.000000
H      0.855000     8.564991     0.000000
H      6.990000     2.511474     0.000000
H      5.580000     0.381051     0.000000
H      6.990000     5.022947     0.000000
H      6.990000     7.534421     0.000000
H      5.580000     9.664844     0.000000
H      3.030000     9.820728     0.000000
