66
h-BN hex flake from 4x4 hex centers with H-terminated boundary
B      1.450000     0.000000     0.000000
N      0.725000     1.255737     0.000000
B     -0.725000     1.255737     0.000000
N     -1.450000     0.000000     0.000000
B     -0.725000    -1.255737     0.000000
N      0.725000    -1.255737     0.000000
B      1.450000     2.511474     0.000000
N      0.725000     3.767211     0.000000
B     -0.725000     3.767211     0.000000
N     -1.450000     2.511474     0.000000
B      1.450000     5.022947     0.000000
N      0.725000     6.278684     0.000000
B     -0.725000     6.278684     0.000000
N     -1.450000     5.022947     0.000000
B      1.450000     7.534421     0.000000
N      0.725000     8.790158     0.000000
B     -0.725000     8.790158     0.000000
N     -1.450000     7.534421     0.000000
B      3.625000     1.255737     0.000000
N      2.900000     2.511474     0.000000
N      2.900000     0.000000     0.000000
B      3.625000     3.767211     0.000000
N      2.900000     5.022947     0.000000
B      3.625000     6.278684     0.000000
N      2.900000     7.534421     0.000000
B      3.625000     8.790158     0.000000
N      2.900000    10.045895     0.000000
B      1.450000    10.045895     0.000000
B      5.800000     2.511474     0.000000
N      5.075000     3.767211     0.000000
N      5.075000     1.255737     0.000000
B      5.800000     5.022947     0.000000
N      5.075000     6.278684     0.000000
B      5.800000     7.534421     0.000000
N      5.075000     8.790158     0.000000
B      5.800000    10.045895     0.000000
N      5.075000    11.301632     0.000000
B      3.625000    11.301632     0.000000
B      7.975000     3.767211     0.000000
N      7.250000     5.022947     0.000000
N      7.250000     2.511474     0.000000
B      7.975000     6.278684     0.000000
N      7.250000     7.534421     0.000000
B      7.975000     8.790158     0.000000
N      7.250000    10.045895     0.000000
B      7.975000    11.301632     0.000000
N      7.250000    12.557368     0.000000
B      5.800000    12.557368     0.000000
H     -2.460000     0.000000     0.000000
H     -1.320000    -2.286307     0.000000
H      1.230000    -2.130422     0.000000
H     -2.460000     2.511474     0.000000
H     -2.460000     5.022947     0.000000
H     -1.320000     9.820728     0.000000
H     -2.460000     7.534421     0.000000
H      3.405000    -0.874686     0.000000
H      0.855000    11.076465     0.000000
H      5.580000     0.381051     0.000000
H      3.030000    12.332202     0.000000
H      9.165000     3.767211     0.000000
H      7.755000     1.636788     0.000000
H      9.165000     6.278684     0.000000
H      9.165000     8.790158     0.000000
H      9.165000    11.301632     0.000000
H      7.755000    13.432054     0.000000
H      5.205000    13.587939     0.000000
