106
h-BN hex flake from 5x6 hex centers with H-terminated boundary
B      1.450000     0.000000     0.000000
N      0.725000     1.255737     0.000000
B     -0.725000     1.255737     0.000000
N     -1.450000     0.000000     0.000000
B     -0.725000    -1.255737     0.000000
N      0.725000    -1.255737     0.000000
B      1.450000     2.511474     0.000000
N      0.725000     3.767211     0.000000
B     -0.725000     3.767211     0.000000
N     -1.450000     2.511474     0.000000
B      1.450000     5.022947     0.000000
N      0.725000     6.278684     0.000000
B     -0.725000     6.278684     0.000000
N     -1.450000     5.022947     0.000000
B      1.450000     7.534421     0.000000
N      0.725000     8.790158     0.000000
B     -0.725000     8.790158     0.000000
N     -1.450000     7.534421     0.000000
B      1.450000    10.045895     0.000000
N      0.725000    11.301632     0.000000
B     -0.725000    11.301632     0.000000
N     -1.450000    10.045895     0.000000
B      1.450000    12.557368     0.000000
N      0.725000    13.813105     0.000000
B     -0.725000    13.813105     0.000000
N     -1.450000    12.557368     0.000000
B      3.625000     1.255737     0.000000
N      2.900000     2.511474     0.000000
N      2.900000     0.000000     0.000000
B      3.625000     3.767211     0.000000
N      2.900000     5.022947     0.000000
B      3.625000     6.278684     0.000000
N      2.900000     7.534421     0.000000
B      3.625000     8.790158     0.000000
N      2.900000    10.045895     0.000000
B      3.625000    11.301632     0.000000
N      2.900000    12.557368     0.000000
B      3.625000    13.813105     0.000000
N      2.900000    15.068842     0.000000
B      1.450000    15.068842     0.000000
B      5.800000     2.511474     0.000000
N      5.075000     3.767211     0.000000
N      5.075000     1.255737     0.000000
B      5.800000     5.022947     0.000000
N      5.075000     6.278684     0.000000
B      5.800000     7.534421     0.000000
N      5.075000     8.790158     0.000000
B      5.800000    10.045895     0.000000
N      5.075000    11.301632     0.000000
B      5.800000    12.557368     0.000000
N      5.075000    13.813105     0.000000
B      5.800000    15.068842     0.000000
N      5.075000    16.324579     0.000000
B      3.625000    16.324579     0.000000
B      7.975000     3.767211     0.000000
N      7.250000     5.022947     0.000000
N      7.250000     2.511474     0.000000
B      7.975000     6.278684     0.000000
N      7.250000     7.534421     0.000000
B      7.975000     8.790158     0.000000
N      7.250000    10.045895     0.000000
B      7.975000    11.301632     0.000000
N      7.250000    12.557368     0.000000
B      7.975000    13.813105     0.000000
N      7.250000    15.068842     0.000000
B      7.975000    16.324579     0.000000
N      7.250000    17.580316     0.000000
B      5.800000    17.580316     0.000000
B     10.150000     5.022947     0.000000
N      9.425000     6.278684     0.000000
N      9.425000     3.767211     0.000000
B     10.150000     7.534421     0.000000
N      9.425000     8.790158     0.000000
B     10.150000    10.045895     0.000000
N      9.425000    11.301632     0.000000
B     10.150000    12.557368     0.000000
N      9.425000    13.813105     0.000000
B     10.150000    15.068842     0.000000
N      9.425000    16.324579     0.000000
B     10.150000    17.580316     0.000000
N      9.425000    18.836053     0.000000
B      7.975000    18.836053     0.000000
H     -2.460000     0.000000     0.000000
H     -1.320000    -2.286307     0.000000
H      1.230000    -2.130422     0.000000
H     -2.460000     2.511474     0.000000
H     -2.460000     5.022947     0.000000
H     -2.460000     7.534421     0.000000
H     -2.460000    10.045895     0.000000
H     -1.320000    14.843675     0.000000
H     -2.460000    12.557368     0.000000
H      3.405000    -0.874686     0.000000
H      0.855000    16.099412     0.000000
H      5.580000     0.381051     0.000000
H      3.030000    17.355149     0.000000
H      7.755000     1.636788     0.000000
H      5.205000    18.610886     0.000000
H     11.340000     5.022947     0.000000
H      9.930000     2.892525     0.000000
H     11.340000     7.534421     0.000000
H     11.340000    10.045895     0.000000
H     11.340000    12.557368     0.000000
H     11.340000    15.068842     0.000000
H     11.340000    17.580316     0.000000
H      9.930000    19.710738     0.000000
H      7.380000    19.866623     0.000000
