156
h-BN hex flake from 7x7 hex centers with H-terminated boundary
B      1.450000     0.000000     0.000000
N      0.725000     1.255737     0.000000
B     -0.725000     1.255737     0.000000
N     -1.450000     0.000000     0.000000
B     -0.725000    -1.255737     0.000000
N      0.725000    -1.255737     0.000000
B      1.450000     2.511474     0.000000
N      0.725000     3.767211     0.000000
B     -0.725000     3.767211     0.000000
N     -1.450000     2.511474     0.000000
B      1.450000     5.022947     0.000000
N      0.725000     6.278684     0.000000
B     -0.725000     6.278684     0.000000
N     -1.450000     5.022947     0.000000
B      1.450000     7.534421     0.000000
N      0.725000     8.790158     0.000000
B     -0.725000     8.790158     0.000000
N     -1.450000     7.534421     0.000000
B      1.450000    10.045895     0.000000
N      0.725000    11.301632     0.000000
B     -0.725000    11.301632     0.000000
N     -1.450000    10.045895     0.000000
B      1.450000    12.557368     0.000000
N      0.725000    13.813105     0.000000
B     -0.725000    13.813105     0.000000
N     -1.450000    12.557368     0.000000
B      1.450000    15.068842     0.000000
N      0.725000    16.324579     0.000000
B     -0.725000    16.324579     0.000000
N     -1.450000    15.068842     0.000000
B      3.625000     1.255737     0.000000
N      2.900000     2.511474     0.000000
N      2.900000     0.000000     0.000000
B      3.625000     3.767211     0.000000
N      2.900000     5.022947     0.000000
B      3.625000     6.278684     0.000000
N      2.900000     7.534421     0.000000
B      3.625000     8.790158     0.000000
N      2.900000    10.045895     0.000000
B      3.625000    11.301632     0.000000
N      2.900000    12.557368     0.000000
B      3.625000    13.813105     0.000000
N      2.900000    15.068842     0.000000
B      3.625000    16.324579     0.000000
N      2.900000    17.580316     0.000000
B      1.450000    17.580316     0.000000
B      5.800000     2.511474     0.000000
N      5.075000     3.767211     0.000000
N      5.075000     1.255737     0.000000
B      5.800000     5.022947     0.000000
N      5.075000     6.278684     0.000000
B      5.800000     7.534421     0.000000
N      5.075000     8.790158     0.000000
B      5.800000    10.045895     0.000000
N      5.075000    11.301632     0.000000
B      5.800000    12.557368     0.000000
N      5.075000    13.813105     0.000000
B      5.800000    15.068842     0.000000
N      5.075000    16.324579     0.000000
B      5.800000    17.580316     0.000000
N      5.075000    18.836053     0.000000
B      3.625000    18.836053     0.000000
B      7.975000     3.767211     0.000000
N      7.250000     5.022947     0.000000
N      7.250000     2.511474     0.000000
B      7.975000     6.278684     0.000000
N      7.250000     7.534421     0.000000
B      7.975000     8.790158     0.000000
N      7.250000    10.045895     0.000000
B      7.975000    11.301632     0.000000
N      7.250000    12.557368     0.000000
B      7.975000    13.813105     0.000000
N      7.250000    15.068842     0.000000
B      7.975000    16.324579     0.000000
N      7.250000    17.580316     0.000000
B      7.975000    18.836053     0.000000
N      7.250000    20.091789     0.000000
B      5.800000    20.091789     0.000000
B     10.150000     5.022947     0.000000
N      9.425000     6.278684     0.000000
N      9.425000     3.767211     0.000000
B     10.150000     7.534421     0.000000
N      9.425000     8.790158     0.000000
B     10.150000    10.045895     0.000000
N      9.425000    11.301632     0.000000
B     10.150000    12.557368     0.000000
N      9.425000    13.813105     0.000000
B     10.150000    15.068842     0.000000
N      9.425000    16.324579     0.000000
B     10.150000    17.580316     0.000000
N      9.425000    18.836053     0.000000
B     10.150000    20.091789     0.000000
N      9.425000    21.347526     0.000000
B      7.975000    21.347526     0.000000
B     12.325000     6.278684     0.000000
N     11.600000     7.534421     0.000000
N     11.600000     5.022947     0.000000
B     12.325000     8.790158     0.000000
N     11.600000    10.045895     0.000000
B     12.325000    11.301632     0.000000
N     11.600000    12.557368     0.000000
B     12.325000    13.813105     0.000000
N     11.600000    15.068842     0.000000
B     12.325000    16.324579     0.000000
N     11.600000    17.580316     0.000000
B     12.325000    18.836053     0.000000
N     11.600000    20.091789     0.000000
B     12.325000    21.347526     0.000000
N     11.600000    22.603263     0.000000
B     10.150000    22.603263     0.000000
B     14.500000     7.534421     0.000000
N     13.775000     8.790158     0.000000
N     13.775000     6.278684     0.000000
B     14.500000    10.045895     0.000000
N     13.775000    11.301632     0.000000
B     14.500000    12.557368     0.000000
N     13.775000    13.813105     0.000000
B     14.500000    15.068842     0.000000
N     13.775000    16.324579     0.000000
B     14.500000    17.580316     0.000000
N     13.775000    18.836053     0.000000
B     14.500000    20.091789     0.000000
N     13.775000    21.347526     0.000000
B     14.500000    22.603263     0.000000
N     13.775000    23.859000     0.000000
B     12.325000    23.859000     0.000000
H     -2.460000     0.000000     0.000000
H     -1.320000    -2.286307     0.000000
H      1.230000    -2.130422     0.000000
H     -2.460000     2.511474     0.000000
H     -2.460000     5.022947     0.000000
H     -2.460000     7.534421     0.000000
H     -2.460000    10.045895     0.000000
H     -2.460000    12.557368     0.000000
H     -1.320000    17.355149     0.000000
H     -2.460000    15.068842     0.000000
H      3.405000    -0.874686     0.000000
H      0.855000    18.610886     0.000000
H      5.580000     0.381051     0.000000
H      3.030000    19.866623     0.000000
H      7.755000     1.636788     0.000000
H      5.205000    21.122360     0.000000
H      9.930000     2.892525     0.000000
H      7.380000    22.378096     0.000000
H     12.105000     4.148262     0.000000
H      9.555000    23.633833     0.000000
H     15.690000     7.534421     0.000000
H     14.280000     5.403999     0.000000
H     15.690000    10.045895     0.000000
H     15.690000    12.557368     0.000000
H     15.690000    15.068842     0.000000
H     15.690000    17.580316     0.000000
H     15.690000    20.091789     0.000000
H     15.690000    22.603263     0.000000
H     14.280000    24.733686     0.000000
H     11.730000    24.889570     0.000000
